NAME          
ROWS
 N  OBJ
 L  c1
 L  c2
 L  c3
COLUMNS
    MARKER    'MARKER'                 'INTORG'
    x[1]      c1        74
    x[1]      c2        739
    x[1]      c3        325
    x[1]      OBJ       -563
    x[2]      c1        122
    x[2]      c2        429
    x[2]      c3        723
    x[2]      OBJ       -37
    x[3]      c1        161
    x[3]      c2        980
    x[3]      c3        50
    x[3]      OBJ       -37
    x[4]      c1        561
    x[4]      c2        120
    x[4]      c3        931
    x[4]      OBJ       -629
    x[5]      c1        21
    x[5]      c2        567
    x[5]      c3        358
    x[5]      OBJ       -996
    x[6]      c1        34
    x[6]      c2        386
    x[6]      c3        262
    x[6]      OBJ       -13
    x[7]      c1        16
    x[7]      c2        110
    x[7]      c3        154
    x[7]      OBJ       -704
    x[8]      c1        872
    x[8]      c2        116
    x[8]      c3        807
    x[8]      OBJ       -677
    x[9]      c1        21
    x[9]      c2        885
    x[9]      c3        720
    x[9]      OBJ       -923
    x[10]     c1        634
    x[10]     c2        876
    x[10]     c3        630
    x[10]     OBJ       -228
    x[11]     c1        690
    x[11]     c2        892
    x[11]     c3        101
    x[11]     OBJ       -173
    x[12]     c1        815
    x[12]     c2        18
    x[12]     c3        997
    x[12]     OBJ       -942
    x[13]     c1        529
    x[13]     c2        81
    x[13]     c3        444
    x[13]     OBJ       -204
    x[14]     c1        9
    x[14]     c2        598
    x[14]     c3        456
    x[14]     OBJ       -586
    x[15]     c1        165
    x[15]     c2        25
    x[15]     c3        656
    x[15]     OBJ       -108
    x[16]     c1        821
    x[16]     c2        149
    x[16]     c3        417
    x[16]     OBJ       -803
    x[17]     c1        440
    x[17]     c2        816
    x[17]     c3        300
    x[17]     OBJ       -52
    x[18]     c1        504
    x[18]     c2        983
    x[18]     c3        523
    x[18]     OBJ       -536
    x[19]     c1        261
    x[19]     c2        909
    x[19]     c3        166
    x[19]     OBJ       -955
    x[20]     c1        431
    x[20]     c2        756
    x[20]     c3        917
    x[20]     OBJ       -261
    x[21]     c1        8
    x[21]     c2        73
    x[21]     c3        886
    x[21]     OBJ       -385
    x[22]     c1        799
    x[22]     c2        637
    x[22]     c3        697
    x[22]     OBJ       -506
    x[23]     c1        910
    x[23]     c2        686
    x[23]     c3        46
    x[23]     OBJ       -878
    x[24]     c1        361
    x[24]     c2        503
    x[24]     c3        74
    x[24]     OBJ       -263
    x[25]     c1        987
    x[25]     c2        459
    x[25]     c3        234
    x[25]     OBJ       -673
    x[26]     c1        578
    x[26]     c2        567
    x[26]     c3        551
    x[26]     OBJ       -239
    x[27]     c1        661
    x[27]     c2        682
    x[27]     c3        911
    x[27]     OBJ       -946
    x[28]     c1        124
    x[28]     c2        550
    x[28]     c3        440
    x[28]     OBJ       -152
    x[29]     c1        478
    x[29]     c2        549
    x[29]     c3        864
    x[29]     OBJ       -582
    x[30]     c1        419
    x[30]     c2        886
    x[30]     c3        930
    x[30]     OBJ       -487
RHS
    rhs       c1        6253
    rhs       c2        8014
    rhs       c3        7785
RANGES
BOUNDS
 LO bounds    x[1]      0
 PL bounds    x[1]
 LO bounds    x[2]      0
 PL bounds    x[2]
 LO bounds    x[3]      0
 PL bounds    x[3]
 LO bounds    x[4]      0
 PL bounds    x[4]
 LO bounds    x[5]      0
 PL bounds    x[5]
 LO bounds    x[6]      0
 PL bounds    x[6]
 LO bounds    x[7]      0
 PL bounds    x[7]
 LO bounds    x[8]      0
 PL bounds    x[8]
 LO bounds    x[9]      0
 PL bounds    x[9]
 LO bounds    x[10]     0
 PL bounds    x[10]
 LO bounds    x[11]     0
 PL bounds    x[11]
 LO bounds    x[12]     0
 PL bounds    x[12]
 LO bounds    x[13]     0
 PL bounds    x[13]
 LO bounds    x[14]     0
 PL bounds    x[14]
 LO bounds    x[15]     0
 PL bounds    x[15]
 LO bounds    x[16]     0
 PL bounds    x[16]
 LO bounds    x[17]     0
 PL bounds    x[17]
 LO bounds    x[18]     0
 PL bounds    x[18]
 LO bounds    x[19]     0
 PL bounds    x[19]
 LO bounds    x[20]     0
 PL bounds    x[20]
 LO bounds    x[21]     0
 PL bounds    x[21]
 LO bounds    x[22]     0
 PL bounds    x[22]
 LO bounds    x[23]     0
 PL bounds    x[23]
 LO bounds    x[24]     0
 PL bounds    x[24]
 LO bounds    x[25]     0
 PL bounds    x[25]
 LO bounds    x[26]     0
 PL bounds    x[26]
 LO bounds    x[27]     0
 PL bounds    x[27]
 LO bounds    x[28]     0
 PL bounds    x[28]
 LO bounds    x[29]     0
 PL bounds    x[29]
 LO bounds    x[30]     0
 PL bounds    x[30]
ENDATA
